&CONTROL
        calculation = 'scf'
        restart_mode='from_scratch'
        tstress = .true.
        tprnfor = .true.
        prefix='H'
        pseudo_dir = './'
        outdir = 'out/'
        wf_collect=.true.
        disk_io = 'low'
        verbosity = 'high'
/
 &SYSTEM
    ibrav = 0
    celldm(1)=9.288657844990549
    nat = 1
    ntyp = 1
    nspin=1
    ecutwfc =130.0
    ecutrho =520.0
!    nbnd=74
    smearing='mp'
    occupations='smearing'
    degauss=0.03
 /
 &ELECTRONS
    diagonalization='cg'
    conv_thr = 1.d-9
    electron_maxstep=500
    scf_must_converge=.true.
!    mixing_mode = 'plain'
    mixing_beta = 0.3
 /

CELL_PARAMETERS
  0.866025403784439  -0.500000000000000   0.000000000000000
  0.000000000000000   1.000000000000000   0.000000000000000
  0.000000000000000   0.000000000000000  17.598795205242485
ATOMIC_SPECIES
H   1.00794 H_HSCV_PBE-1.0.UPF

ATOMIC_POSITIONS (angstrom)
H        3.622361614  -0.070712474  47.072440363    0   0   0

K_POINTS gamma
